20
2 0 1
3 2 1
4 0 1
4 2 1
5 1 1
5 2 1
5 3 1
6 0 1
6 4 1
6 5 1
7 2 1
7 6 1
8 3 1
8 4 1
8 5 1
9 0 1
9 1 1
9 3 1
9 4 1
9 5 1
9 8 1
10 1 1
10 3 1
10 4 1
10 5 1
10 7 1
10 8 1
11 0 1
11 2 1
11 3 1
11 5 1
11 6 1
11 8 1
11 9 1
12 0 1
12 3 1
12 5 1
12 8 1
12 9 1
13 2 1
13 3 1
13 5 1
13 11 1
13 12 1
14 1 1
14 2 1
14 3 1
14 5 1
14 9 1
14 11 1
14 13 1
15 2 1
15 3 1
15 4 1
15 5 1
15 10 1
16 1 1
16 2 1
16 3 1
16 5 1
16 6 1
16 8 1
16 9 1
16 10 1
16 11 1
16 12 1
16 13 1
17 0 1
17 1 1
17 7 1
17 10 1
17 13 1
17 14 1
17 15 1
18 8 1
18 10 1
18 12 1
18 15 1
18 16 1
19 0 1
19 1 1
19 2 1
19 3 1
19 4 1
19 5 1
19 7 1
19 9 1
19 12 1
19 13 1
19 15 1
19 16 1
19 17 1
